\ENCODING=ISO-8859-1
\Problem name: /home/vanessa/Documentos/tcc-auctions/completo/completo2s.lp

Maximize
 obj: 8.1 P26T98 + 5.4674997 P21T81 + 1.35 P21T80 + 3 P2T28 + 4.5 P2T25
      + 6.075 P7T42 + 1.5 P10T67 + 2.25 P15T79 + 12.15 P17T22 + 1.35 P15T78
      + 3.6450002 P15T87 + 2.25 P6T79 + 6.5610003 P15T85 + 5 P17T15
      + 4.5 P10T70 + 7.5 P16T50 + 5 P22T49 + 2.7 P15T81 + 7.5 P22T40 + 9 P22T43
      + 3.75 P2T19 + 3.75 P8T20 + 1.25 P9T8 + 7.5 P1T48 + 3 P7T53 + 2.5 P2T11
      + 2.025 P7T54 + 4.5 P8T25 + 1.125 P12T11 + 6.5610003 P15T89 + 3.75 P9T6
      + 3.6450002 P7T56 + 6.75 P17T34 + 1.5 P8T28 + 1.6666666 P17T24
      + 8.1 P7T61T46 + 3 P8T26 + 2.025 P10T82 + 6.75 P17T26 + 5 P23T28
      + 3.2805002 P21T83 + 7.5 P22T53 + 5 P11T19 + 4.5 P26T76 + 6.075 P10T48
      + 7.5 P11T18 + 3 P10T43 + 4.05 P6T98 + 3.6450002 P8T35 + 3.6450002 P15T57
      + 2.5 P10T42 + 1.6666666 P25T1 + 10.934999 P14T97 + 10.934999 P14T94
      + 1.25 P8T38 + 4.0499997 P15T60 + 1.125 P21T53 + 9 P20T87 + 3.75 P14T9
      + 1.25 P9T10 + 3.75 P14T7 + 4.05 P7T75 + 10.934999 P10T51 + 2.5 P8T5
      + 5 P17T10 + 7.2900004 P14T2 + 10.934999 P14T98 + 6.5610003 P15T66
      + 5 P16T34 + 9.841499 P15T76 + 9 P16T44 + 5.4674997 P15T75 + 2.5 P9T17
      + 1.125 P15T71 + 12.15 P10T73T90 + 4.5 P3T39 + 4.05 P4T92 + 2.025 P5T60
      + 9 P11T79 + 2.025 P5T62 + 3.6450002 P4T95 + 1.35 P12T43
      + 10.934999 P4T96 + 3 P12T41 + 7.2900004 P2T64 + 10.934999 P2T62
      + 4.05 P2T60 + 12.15 P23T58 + 6.75 P23T53 + 1.25 P13T29 + 12.15 P17T72
      + 4.5 P3T27 + 3.3333333 P19T0 + 7.2900004 P5T74 + 2.5 P7T11 + 2.5 P7T6
      + 1.35 P18T43 + 1.5 P3T23 + 1.25 P7T5 + 4.05 P17T77 + 5 P19T14 + 9 P1T86
      + 9 P11T86 + 3.6450002 P13T21 + 8.1 P19T13 + 3.75 P7T7 + 3.375 P12T53
      + 4.05 P2T52 + 3.75 P7T19 + 2.25 P23T63 + 3 P24T31 + 13.5 P22T97
      + 3.75 P3T19 + 1.25 P3T18 + 3.6450002 P5T81 + 3.6450002 P10T87
      + 4.5 P7T20 + 13.5 P1T79 + 4.05 P10T89 + 5 P1T76 + 6.075 P2T45
      + 13.5 P11T51 + P18T11 + 13.5 P16T68 + 2.25 P17T45 + 3 P5T89 + 4.5 P7T28
      + 7.2900004 P10T92 + 6.075 P7T27 + 1.6666666 P23T38 + 9 P22T68
      + 9.841499 P21T94 + 13.5 P22T69 + 3.6450002 P5T91 + 4.05 P5T95
      + 13.5 P1T65 + 3 P2T33 + 1.125 P18T14 + 5 P11T71 + P12T0 + 13.5 P22T78
      + 3.6450002 P8T91 + 4.05 P9T66 + 2.25 P19T43 + 2.5 P4T50 + 2.025 P8T96
      + 6.5610003 P18T77 + 8.1 P19T47 + 6.075 P9T67 + 5 P20T6
      + 3.3333333 P19T38 + 5.4674997 P12T95 + 2.5 P20T26 + 4.5 P20T28
      + 1.25 P5T1 + 2.025 P9T76 + 2.5 P14T39 + 4.5 P14T38 + 3.2805002 P12T98
      + 3 P4T63 + 2.5 P5T31 + 9.841499 P12T96 + 7.2900004 P2T97 + 1.5 P4T66
      + 2 P15T10 + 4.5 P19T49 + 6.075 P3T62 + 2.5 P5T38 + 3 P5T39
      + 2.025 P13T70 + 3.6450002 P9T82 + 3 P4T70 + 3.6450002 P18T52
      + 7.2900004 P9T86 + 4.05 P5T40 + 2.7 P18T48 + 6.75 P19T18 + 8.1 P4T32T30
      + 5.4674997 P24T62 + 10.934999 P9T94 + 2 P18T7 + 2.25 P18T8 + 1.5 P5T50
      + 1.25 P10T9 + 2.025 P4T84 + 3.75 P4T9 + 3.2805002 P18T66 + 3.75 P10T8
      + 4.0499997 P12T77 + 4.5 P19T33 + 3.6450002 P4T87 + 3.75 P10T6
      + 2.025 P3T41 + 1.5 P13T52 + 1.8225001 P18T59 + 12.15 P19T29
      + 1.6666666 P6T26 + 1.8225001 P12T80 + 4.0499997 P24T57 + 3.375 P24T56
      + 4.05 P23T88 + 2.25 P25T86 + 4.05 P8T50 + 10.934999 P7T81 + 8.1 P19T84
      + 6.075 P8T54 + 7.2900004 P7T87 + 7.5 P1T11 + 4.5 P9T24 + 3 P15T33
      + 6.075 P14T75 + 7.2900004 P8T59 + 13.5 P20T68 + 2.25 P15T40 + 2.5 P4T15
      + 6.075 P14T70 + 1.25 P4T17 + 4.05 P25T95 + 3.75 P3T8 + 13.5 P20T80
      + 4.5 P10T39 + 10.934999 P7T95 + 4.5 P19T96 + 4.5 P9T33 + 2.7 P15T48
      + 3 P14T79 + 10.934999 P14T78 + 3.2805002 P15T3 + 2 P15T1 + 3.375 P15T54
      + 4.5 P4T23 + 2.7 P15T53 + 1.25 P4T24 + 6.075 P9T38 + 3.6450002 P15T52
      + 2.25 P15T50 + 6.075 P14T81 + 3.375 P21T42 + 7.5 P20T71 + 7.5 P22T14
      + 4.0499997 P21T44 + 3.3333333 P26T55 + 9.841499 P24T94 + 1.5 P8T75
      + 3.3333333 P19T63 + 1.5 P9T44 + 3.75 P14T48 + 10.934999 P3T98
      + 10.934999 P3T97 + 1.5 P4T33 + 3 P9T49 + 7.2900004 P4T37 + 3 P21T10
      + 2.5 P2T8 + 2 P15T29 + 10.934999 P8T87 + 10.934999 P9T55 + 6.075 P14T59
      + 6.075 P4T40 + 4.5 P14T57 + 3.6450002 P9T59 + 4.05 P19T77 + 2.025 P4T41
      + 4.5 P14T55 + 2.025 P8T89 + 2.025 P9T57 + 3.75 P14T54 + 7.2900004 P5T12
      + 3.6450002 P3T85 + 7.5 P20T59 + 1.25 P5T18 - 1.5 P1T4 - 1.5 P2T4
      - 1.5 P3T4 - 1.5 P4T4 - 1.5 P5T4 - 1.5 P6T4 - 1.5 P7T4 - 1.5 P8T4
      - 1.5 P9T4 - 1.5 P10T4 - 1.5 P11T4 - 1.5 P12T4 - 1.5 P13T4 - 1.5 P14T4
      - 1.5 P15T4 - 1.5 P16T4 - 1.5 P17T4 - 1.5 P18T4 - 1.5 P19T4 - 1.5 P20T4
      - 1.5 P21T4 - 1.5 P22T4 - 1.5 P23T4 - 1.5 P24T4 - 1.5 P25T4 - 1.5 P26T4
      - 1.5 P1T16 - 1.5 P2T16 - 1.5 P3T16 - 1.5 P4T16 - 1.5 P5T16 - 1.5 P6T16
      - 1.5 P7T16 - 1.5 P8T16 - 1.5 P9T16 - 1.5 P10T16 - 1.5 P11T16
      - 1.5 P12T16 - 1.5 P13T16 - 1.5 P14T16 - 1.5 P15T16 - 1.5 P16T16
      - 1.5 P17T16 - 1.5 P18T16 - 1.5 P19T16 - 1.5 P20T16 - 1.5 P21T16
      - 1.5 P22T16 - 1.5 P23T16 - 1.5 P24T16 - 1.5 P25T16 - 1.5 P26T16
      - 1.5 P1T36 - 1.5 P2T36 - 1.5 P3T36 - 1.5 P4T36 - 1.5 P5T36 - 1.5 P6T36
      - 1.5 P7T36 - 1.5 P8T36 - 1.5 P9T36 - 1.5 P10T36 - 1.5 P11T36
      - 1.5 P12T36 - 1.5 P13T36 - 1.5 P14T36 - 1.5 P15T36 - 1.5 P16T36
      - 1.5 P17T36 - 1.5 P18T36 - 1.5 P19T36 - 1.5 P20T36 - 1.5 P21T36
      - 1.5 P22T36 - 1.5 P23T36 - 1.5 P24T36 - 1.5 P25T36 - 1.5 P26T36
      - 1.5 P1T93 - 1.5 P2T93 - 1.5 P3T93 - 1.5 P4T93 - 1.5 P5T93 - 1.5 P6T93
      - 1.5 P7T93 - 1.5 P8T93 - 1.5 P9T93 - 1.5 P10T93 - 1.5 P11T93
      - 1.5 P12T93 - 1.5 P13T93 - 1.5 P14T93 - 1.5 P15T93 - 1.5 P16T93
      - 1.5 P17T93 - 1.5 P18T93 - 1.5 P19T93 - 1.5 P20T93 - 1.5 P21T93
      - 1.5 P22T93 - 1.5 P23T93 - 1.5 P24T93 - 1.5 P25T93 - 1.5 P26T93;
Subject To
 c1:   P19T0 + P12T0  = 1
 c2:   P25T1 + P5T1 + P15T1  = 1
 c3:   P14T2  = 1
 c4:   P15T3  = 1
 c5:   P8T5 + P7T5  = 1
 c6:   P9T6 + P7T6 + P20T6 + P10T6  = 1
 c7:   P14T7 + P7T7 + P18T7  = 1
 c8:   P9T8 + P18T8 + P10T8 + P3T8 + P2T8  = 1
 c9:   P14T9 + P10T9 + P4T9  = 1
 c10:  P9T10 + P17T10 + P15T10 + P21T10  = 1
 c11:  P2T11 + P12T11 + P7T11 + P18T11 + P1T11  = 1
 c12:  P5T12  = 1
 c13:  P19T13  = 1
 c14:  P19T14 + P18T14 + P22T14  = 1
 c15:  P17T15 + P4T15  = 1
 c16:  P9T17 + P4T17  = 1
 c17:  P11T18 + P3T18 + P19T18 + P5T18  = 1
 c18:  P2T19 + P11T19 + P7T19 + P3T19  = 1
 c19:  P8T20 + P7T20  = 1
 c20:  P13T21  = 1
 c21:  P17T22  = 1
 c22:  P3T23 + P4T23  = 1
 c23:  P17T24 + P9T24 + P4T24  = 1
 c24:  P2T25 + P8T25  = 1
 c25:  P8T26 + P17T26 + P20T26 + P6T26  = 1
 c26:  P3T27 + P7T27  = 1
 c27:  P2T28 + P8T28 + P23T28 + P7T28 + P20T28  = 1
 c28:  P13T29 + P19T29 + P15T29  = 1
 c29:  P4T32T30  = 1
 c30:  P24T31 + P5T31  = 1
 c31:  P4T32T30  = 1
 c32:  P2T33 + P19T33 + P15T33 + P9T33 + P4T33  = 1
 c33:  P17T34 + P16T34  = 1
 c34:  P8T35  = 1
 c35:  P4T37  = 1
 c36:  P8T38 + P23T38 + P19T38 + P14T38 + P5T38 + P9T38  = 1
 c37:  P3T39 + P14T39 + P5T39 + P10T39  = 1
 c38:  P22T40 + P5T40 + P15T40 + P4T40  = 1
 c39:  P12T41 + P3T41 + P4T41  = 1
 c40:  P7T42 + P10T42 + P21T42  = 1
 c41:  P22T43 + P10T43 + P12T43 + P18T43 + P19T43  = 1
 c42:  P16T44 + P21T44 + P9T44  = 1
 c43:  P2T45 + P17T45  = 1
 c44:  P7T61T46  = 1
 c45:  P19T47  = 1
 c46:  P1T48 + P10T48 + P18T48 + P15T48 + P14T48  = 1
 c47:  P22T49 + P19T49 + P9T49  = 1
 c48:  P16T50 + P4T50 + P5T50 + P8T50 + P15T50  = 1
 c49:  P10T51 + P11T51  = 1
 c50:  P2T52 + P18T52 + P13T52 + P15T52  = 1
 c51:  P7T53 + P22T53 + P21T53 + P23T53 + P12T53 + P15T53  = 1
 c52:  P7T54 + P8T54 + P15T54 + P14T54  = 1
 c53:  P26T55 + P9T55 + P14T55  = 1
 c54:  P7T56 + P24T56  = 1
 c55:  P15T57 + P24T57 + P14T57 + P9T57  = 1
 c56:  P23T58  = 1
 c57:  P18T59 + P8T59 + P14T59 + P9T59 + P20T59  = 1
 c58:  P15T60 + P5T60 + P2T60  = 1
 c59:  P7T61T46  = 1
 c60:  P5T62 + P2T62 + P3T62 + P24T62  = 1
 c61:  P23T63 + P4T63 + P19T63  = 1
 c62:  P2T64  = 1
 c63:  P1T65  = 1
 c64:  P15T66 + P9T66 + P4T66 + P18T66  = 1
 c65:  P10T67 + P9T67  = 1
 c66:  P16T68 + P22T68 + P20T68  = 1
 c67:  P22T69  = 1
 c68:  P10T70 + P13T70 + P4T70 + P14T70  = 1
 c69:  P15T71 + P11T71 + P20T71  = 1
 c70:  P17T72  = 1
 c71:  P10T73T90  = 1
 c72:  P5T74  = 1
 c73:  P7T75 + P15T75 + P14T75 + P8T75  = 1
 c74:  P26T76 + P15T76 + P1T76 + P9T76  = 1
 c75:  P17T77 + P18T77 + P12T77 + P19T77  = 1
 c76:  P15T78 + P22T78 + P14T78  = 1
 c77:  P15T79 + P6T79 + P11T79 + P1T79 + P14T79  = 1
 c78:  P21T80 + P12T80 + P20T80  = 1
 c79:  P21T81 + P15T81 + P5T81 + P7T81 + P14T81  = 1
 c80:  P10T82 + P9T82  = 1
 c81:  P21T83  = 1
 c82:  P4T84 + P19T84  = 1
 c83:  P15T85 + P3T85  = 1
 c84:  P1T86 + P11T86 + P9T86 + P25T86  = 1
 c85:  P15T87 + P20T87 + P10T87 + P4T87 + P7T87 + P8T87  = 1
 c86:  P23T88  = 1
 c87:  P15T89 + P10T89 + P5T89 + P8T89  = 1
 c88:  P10T73T90  = 1
 c89:  P5T91 + P8T91  = 1
 c90:  P4T92 + P10T92  = 1
 c91:  P14T94 + P21T94 + P9T94 + P24T94  = 1
 c92:  P4T95 + P5T95 + P12T95 + P25T95 + P7T95  = 1
 c93:  P4T96 + P8T96 + P12T96 + P19T96  = 1
 c94:  P14T97 + P22T97 + P2T97 + P3T97  = 1
 c95:  P26T98 + P6T98 + P14T98 + P12T98 + P3T98  = 1
 c96:  P1T4 + P2T4 + P3T4 + P4T4 + P5T4 + P6T4 + P7T4 + P8T4 + P9T4 + P10T4
       + P11T4 + P12T4 + P13T4 + P14T4 + P15T4 + P16T4 + P17T4 + P18T4 + P19T4
       + P20T4 + P21T4 + P22T4 + P23T4 + P24T4 + P25T4 + P26T4  = 1
 c97:  P1T16 + P2T16 + P3T16 + P4T16 + P5T16 + P6T16 + P7T16 + P8T16 + P9T16
       + P10T16 + P11T16 + P12T16 + P13T16 + P14T16 + P15T16 + P16T16 + P17T16
       + P18T16 + P19T16 + P20T16 + P21T16 + P22T16 + P23T16 + P24T16 + P25T16
       + P26T16  = 1
 c98:  P1T36 + P2T36 + P3T36 + P4T36 + P5T36 + P6T36 + P7T36 + P8T36 + P9T36
       + P10T36 + P11T36 + P12T36 + P13T36 + P14T36 + P15T36 + P16T36 + P17T36
       + P18T36 + P19T36 + P20T36 + P21T36 + P22T36 + P23T36 + P24T36 + P25T36
       + P26T36  = 1
 c99:  P1T93 + P2T93 + P3T93 + P4T93 + P5T93 + P6T93 + P7T93 + P8T93 + P9T93
       + P10T93 + P11T93 + P12T93 + P13T93 + P14T93 + P15T93 + P16T93 + P17T93
       + P18T93 + P19T93 + P20T93 + P21T93 + P22T93 + P23T93 + P24T93 + P25T93
       + P26T93  = 1
 c100: P1T48 + P1T86 + P1T79 + P1T76 + P1T65 + P1T11 + P1T4 + P1T16 + P1T36
       + P1T93 >= 1
 c101: P2T28 + P2T25 + P2T19 + P2T11 + P2T64 + P2T62 + P2T60 + P2T52 + P2T45
       + P2T33 + P2T97 + P2T8 + P2T4 + P2T16 + P2T36 + P2T93 >= 1
 c102: P3T39 + P3T27 + P3T23 + P3T19 + P3T18 + P3T62 + P3T41 + P3T8 + P3T98
       + P3T97 + P3T85 + P3T4 + P3T16 + P3T36 + P3T93 >= 1
 c103: P4T92 + P4T95 + P4T96 + P4T50 + P4T63 + P4T66 + P4T70 + P4T32T30 + P4T84
       + P4T9 + P4T87 + P4T15 + P4T17 + P4T23 + P4T24 + P4T33 + P4T37 + P4T40
       + P4T41 + P4T4 + P4T16 + P4T36 + P4T93 >= 1
 c104: P5T60 + P5T62 + P5T74 + P5T81 + P5T89 + P5T91 + P5T95 + P5T1 + P5T31
       + P5T38 + P5T39 + P5T40 + P5T50 + P5T12 + P5T18 + P5T4 + P5T16 + P5T36
       + P5T93 >= 1
 c105: P6T79 + P6T98 + P6T26 + P6T4 + P6T16 + P6T36 + P6T93 >= 1
 c106: P7T42 + P7T53 + P7T54 + P7T56 + P7T61T46 + P7T75 + P7T11 + P7T6 + P7T5
       + P7T7 + P7T19 + P7T20 + P7T28 + P7T27 + P7T81 + P7T87 + P7T95 + P7T4
       + P7T16 + P7T36 + P7T93 >= 1
 c107: P8T20 + P8T25 + P8T28 + P8T26 + P8T35 + P8T38 + P8T5 + P8T91 + P8T96
       + P8T50 + P8T54 + P8T59 + P8T75 + P8T87 + P8T89 + P8T4 + P8T16 + P8T36
       + P8T93 >= 1
 c108: P9T8 + P9T6 + P9T10 + P9T17 + P9T66 + P9T67 + P9T76 + P9T82 + P9T86
       + P9T94 + P9T24 + P9T33 + P9T38 + P9T44 + P9T49 + P9T55 + P9T59 + P9T57
       + P9T4 + P9T16 + P9T36 + P9T93 >= 1
 c109: P10T67 + P10T70 + P10T82 + P10T48 + P10T43 + P10T42 + P10T51 + P10T73T90
       + P10T87 + P10T89 + P10T92 + P10T9 + P10T8 + P10T6 + P10T39 + P10T4
       + P10T16 + P10T36 + P10T93 >= 1
 c110: P11T19 + P11T18 + P11T79 + P11T86 + P11T51 + P11T71 + P11T4 + P11T16
       + P11T36 + P11T93 >= 1
 c111: P12T11 + P12T43 + P12T41 + P12T53 + P12T0 + P12T95 + P12T98 + P12T96
       + P12T77 + P12T80 + P12T4 + P12T16 + P12T36 + P12T93 >= 1
 c112: P13T29 + P13T21 + P13T70 + P13T52 + P13T4 + P13T16 + P13T36 + P13T93
       >= 1
 c113: P14T97 + P14T94 + P14T9 + P14T7 + P14T2 + P14T98 + P14T39 + P14T38
       + P14T75 + P14T70 + P14T79 + P14T78 + P14T81 + P14T48 + P14T59 + P14T57
       + P14T55 + P14T54 + P14T4 + P14T16 + P14T36 + P14T93 >= 1
 c114: P15T79 + P15T78 + P15T87 + P15T85 + P15T81 + P15T89 + P15T57 + P15T60
       + P15T66 + P15T76 + P15T75 + P15T71 + P15T10 + P15T33 + P15T40 + P15T48
       + P15T3 + P15T1 + P15T54 + P15T53 + P15T52 + P15T50 + P15T29 + P15T4
       + P15T16 + P15T36 + P15T93 >= 1
 c115: P16T50 + P16T34 + P16T44 + P16T68 + P16T4 + P16T16 + P16T36 + P16T93
       >= 1
 c116: P17T22 + P17T15 + P17T34 + P17T24 + P17T26 + P17T10 + P17T72 + P17T77
       + P17T45 + P17T4 + P17T16 + P17T36 + P17T93 >= 1
 c117: P18T43 + P18T11 + P18T14 + P18T77 + P18T52 + P18T48 + P18T7 + P18T8
       + P18T66 + P18T59 + P18T4 + P18T16 + P18T36 + P18T93 >= 1
 c118: P19T0 + P19T14 + P19T13 + P19T43 + P19T47 + P19T38 + P19T49 + P19T18
       + P19T33 + P19T29 + P19T84 + P19T96 + P19T63 + P19T77 + P19T4 + P19T16
       + P19T36 + P19T93 >= 1
 c119: P20T87 + P20T6 + P20T26 + P20T28 + P20T68 + P20T80 + P20T71 + P20T59
       + P20T4 + P20T16 + P20T36 + P20T93 >= 1
 c120: P21T81 + P21T80 + P21T83 + P21T53 + P21T94 + P21T42 + P21T44 + P21T10
       + P21T4 + P21T16 + P21T36 + P21T93 >= 1
 c121: P22T49 + P22T40 + P22T43 + P22T53 + P22T97 + P22T68 + P22T69 + P22T78
       + P22T14 + P22T4 + P22T16 + P22T36 + P22T93 >= 1
 c122: P23T28 + P23T58 + P23T53 + P23T63 + P23T38 + P23T88 + P23T4 + P23T16
       + P23T36 + P23T93 >= 1
 c123: P24T31 + P24T62 + P24T57 + P24T56 + P24T94 + P24T4 + P24T16 + P24T36
       + P24T93 >= 1
 c124: P25T1 + P25T86 + P25T95 + P25T4 + P25T16 + P25T36 + P25T93 >= 1
 c125: P26T98 + P26T76 + P26T55 + P26T4 + P26T16 + P26T36 + P26T93 >= 1
 c126: 3 P1T48 + 3 P1T86 + 20 P1T79 + 4 P1T76 + 6 P1T65 + P1T11 + 4 P1T4
       + 2 P1T16 + 4 P1T36 + 3 P1T93 >= 8
 c127: 4 P2T28 + 6 P2T25 + 2 P2T19 + P2T11 + 4 P2T64 + 6 P2T62 + 6 P2T60
       + 3 P2T52 + P2T45 + 6 P2T33 + 3 P2T97 + P2T8 + 4 P2T4 + 2 P2T16
       + 4 P2T36 + 3 P2T93 >= 8
 c128: 4 P3T39 + 4 P3T27 + 4 P3T23 + 2 P3T19 + 2 P3T18 + 6 P3T62 + 6 P3T41
       + P3T8 + 3 P3T98 + 3 P3T97 + 3 P3T85 + 4 P3T4 + 2 P3T16 + 4 P3T36
       + 3 P3T93 >= 8
 c129: 3 P4T92 + 3 P4T95 + 3 P4T96 + 3 P4T50 + 6 P4T63 + 4 P4T66 + 6 P4T70
       + 10 P4T32T30 + 3 P4T84 + P4T9 + 3 P4T87 + 2 P4T15 + 2 P4T17 + 4 P4T23
       + 6 P4T24 + 6 P4T33 + 4 P4T37 + 4 P4T40 + 6 P4T41 + 4 P4T4 + 2 P4T16
       + 4 P4T36 + 3 P4T93 >= 8
 c130: 6 P5T60 + 6 P5T62 + 6 P5T74 + 3 P5T81 + 4 P5T89 + 4 P5T91 + 3 P5T95
       + 3 P5T1 + 6 P5T31 + 4 P5T38 + 4 P5T39 + 4 P5T40 + 3 P5T50 + 6 P5T12
       + 2 P5T18 + 4 P5T4 + 2 P5T16 + 4 P5T36 + 3 P5T93 >= 8
 c131: 20 P6T79 + 3 P6T98 + 6 P6T26 + 4 P6T4 + 2 P6T16 + 4 P6T36 + 3 P6T93 >= 8
 c132: 4 P7T42 + 3 P7T53 + 3 P7T54 + 6 P7T56 + 10 P7T61T46 + 4 P7T75 + P7T11
       + 3 P7T6 + 4 P7T5 + 3 P7T7 + 2 P7T19 + 4 P7T20 + 4 P7T28 + 4 P7T27
       + 3 P7T81 + 3 P7T87 + 3 P7T95 + 4 P7T4 + 2 P7T16 + 4 P7T36 + 3 P7T93
       >= 8
 c133: 4 P8T20 + 6 P8T25 + 4 P8T28 + 6 P8T26 + 4 P8T35 + 4 P8T38 + 4 P8T5
       + 4 P8T91 + 3 P8T96 + 3 P8T50 + 3 P8T54 + 6 P8T59 + 4 P8T75 + 3 P8T87
       + 4 P8T89 + 4 P8T4 + 2 P8T16 + 4 P8T36 + 3 P8T93 >= 8
 c134: P9T8 + 3 P9T6 + P9T10 + 2 P9T17 + 4 P9T66 + 4 P9T67 + 4 P9T76 + 3 P9T82
       + 3 P9T86 + 3 P9T94 + 6 P9T24 + 6 P9T33 + 4 P9T38 + 4 P9T44 + 3 P9T49
       + 3 P9T55 + 6 P9T59 + 6 P9T57 + 4 P9T4 + 2 P9T16 + 4 P9T36 + 3 P9T93
       >= 8
 c135: 4 P10T67 + 6 P10T70 + 3 P10T82 + 3 P10T48 + 4 P10T43 + 4 P10T42
       + 3 P10T51 + 8 P10T73T90 + 3 P10T87 + 4 P10T89 + 3 P10T92 + P10T9
       + P10T8 + 3 P10T6 + 4 P10T39 + 4 P10T4 + 2 P10T16 + 4 P10T36 + 3 P10T93
       >= 8
 c136: 2 P11T19 + 2 P11T18 + 20 P11T79 + 3 P11T86 + 3 P11T51 + 4 P11T71
       + 4 P11T4 + 2 P11T16 + 4 P11T36 + 3 P11T93 >= 8
 c137: P12T11 + 4 P12T43 + 6 P12T41 + 3 P12T53 + 12 P12T0 + 3 P12T95 + 3 P12T98
       + 3 P12T96 + 4 P12T77 + 3 P12T80 + 4 P12T4 + 2 P12T16 + 4 P12T36
       + 3 P12T93 >= 8
 c138: 4 P13T29 + 4 P13T21 + 6 P13T70 + 3 P13T52 + 4 P13T4 + 2 P13T16
       + 4 P13T36 + 3 P13T93 >= 8
 c139: 3 P14T97 + 3 P14T94 + P14T9 + 3 P14T7 + 3 P14T2 + 3 P14T98 + 4 P14T39
       + 4 P14T38 + 4 P14T75 + 6 P14T70 + 20 P14T79 + P14T78 + 3 P14T81
       + 3 P14T48 + 6 P14T59 + 6 P14T57 + 3 P14T55 + 3 P14T54 + 4 P14T4
       + 2 P14T16 + 4 P14T36 + 3 P14T93 >= 8
 c140: 20 P15T79 + P15T78 + 3 P15T87 + 3 P15T85 + 3 P15T81 + 4 P15T89
       + 6 P15T57 + 6 P15T60 + 4 P15T66 + 4 P15T76 + 4 P15T75 + 4 P15T71
       + P15T10 + 6 P15T33 + 4 P15T40 + 3 P15T48 + 4 P15T3 + 3 P15T1 + 3 P15T54
       + 3 P15T53 + 3 P15T52 + 3 P15T50 + 4 P15T29 + 4 P15T4 + 2 P15T16
       + 4 P15T36 + 3 P15T93 >= 8
 c141: 3 P16T50 + 4 P16T34 + 4 P16T44 + 4 P16T68 + 4 P16T4 + 2 P16T16
       + 4 P16T36 + 3 P16T93 >= 8
 c142: 4 P17T22 + 2 P17T15 + 4 P17T34 + 6 P17T24 + 6 P17T26 + P17T10 + 6 P17T72
       + 4 P17T77 + P17T45 + 4 P17T4 + 2 P17T16 + 4 P17T36 + 3 P17T93 >= 8
 c143: 4 P18T43 + P18T11 + 2 P18T14 + 4 P18T77 + 3 P18T52 + 3 P18T48 + 3 P18T7
       + P18T8 + 4 P18T66 + 6 P18T59 + 4 P18T4 + 2 P18T16 + 4 P18T36 + 3 P18T93
       >= 8
 c144: 12 P19T0 + 2 P19T14 + 6 P19T13 + 4 P19T43 + 4 P19T47 + 4 P19T38
       + 3 P19T49 + 2 P19T18 + 6 P19T33 + 4 P19T29 + 3 P19T84 + 3 P19T96
       + 6 P19T63 + 4 P19T77 + 4 P19T4 + 2 P19T16 + 4 P19T36 + 3 P19T93 >= 8
 c145: 3 P20T87 + 3 P20T6 + 6 P20T26 + 4 P20T28 + 4 P20T68 + 3 P20T80
       + 4 P20T71 + 6 P20T59 + 4 P20T4 + 2 P20T16 + 4 P20T36 + 3 P20T93 >= 8
 c146: 3 P21T81 + 3 P21T80 + 3 P21T83 + 3 P21T53 + 3 P21T94 + 4 P21T42
       + 4 P21T44 + P21T10 + 4 P21T4 + 2 P21T16 + 4 P21T36 + 3 P21T93 >= 8
 c147: 3 P22T49 + 4 P22T40 + 4 P22T43 + 3 P22T53 + 3 P22T97 + 4 P22T68
       + 4 P22T69 + P22T78 + 2 P22T14 + 4 P22T4 + 2 P22T16 + 4 P22T36
       + 3 P22T93 >= 8
 c148: 4 P23T28 + 6 P23T58 + 3 P23T53 + 6 P23T63 + 4 P23T38 + 4 P23T88
       + 4 P23T4 + 2 P23T16 + 4 P23T36 + 3 P23T93 >= 8
 c149: 6 P24T31 + 6 P24T62 + 6 P24T57 + 6 P24T56 + 3 P24T94 + 4 P24T4
       + 2 P24T16 + 4 P24T36 + 3 P24T93 >= 8
 c150: 3 P25T1 + 3 P25T86 + 3 P25T95 + 4 P25T4 + 2 P25T16 + 4 P25T36 + 3 P25T93
       >= 16
 c151: 3 P26T98 + 4 P26T76 + 3 P26T55 + 4 P26T4 + 2 P26T16 + 4 P26T36
       + 3 P26T93 >= 16
 c152: 3 P1T48 + 3 P1T86 + 20 P1T79 + 4 P1T76 + 6 P1T65 + P1T11 + 4 P1T4
       + 2 P1T16 + 4 P1T36 + 3 P1T93 <= 20
 c153: 4 P2T28 + 6 P2T25 + 2 P2T19 + P2T11 + 4 P2T64 + 6 P2T62 + 6 P2T60
       + 3 P2T52 + P2T45 + 6 P2T33 + 3 P2T97 + P2T8 + 4 P2T4 + 2 P2T16
       + 4 P2T36 + 3 P2T93 <= 20
 c154: 4 P3T39 + 4 P3T27 + 4 P3T23 + 2 P3T19 + 2 P3T18 + 6 P3T62 + 6 P3T41
       + P3T8 + 3 P3T98 + 3 P3T97 + 3 P3T85 + 4 P3T4 + 2 P3T16 + 4 P3T36
       + 3 P3T93 <= 20
 c155: 3 P4T92 + 3 P4T95 + 3 P4T96 + 3 P4T50 + 6 P4T63 + 4 P4T66 + 6 P4T70
       + 10 P4T32T30 + 3 P4T84 + P4T9 + 3 P4T87 + 2 P4T15 + 2 P4T17 + 4 P4T23
       + 6 P4T24 + 6 P4T33 + 4 P4T37 + 4 P4T40 + 6 P4T41 + 4 P4T4 + 2 P4T16
       + 4 P4T36 + 3 P4T93 <= 20
 c156: 6 P5T60 + 6 P5T62 + 6 P5T74 + 3 P5T81 + 4 P5T89 + 4 P5T91 + 3 P5T95
       + 3 P5T1 + 6 P5T31 + 4 P5T38 + 4 P5T39 + 4 P5T40 + 3 P5T50 + 6 P5T12
       + 2 P5T18 + 4 P5T4 + 2 P5T16 + 4 P5T36 + 3 P5T93 <= 20
 c157: 20 P6T79 + 3 P6T98 + 6 P6T26 + 4 P6T4 + 2 P6T16 + 4 P6T36 + 3 P6T93
       <= 20
 c158: 4 P7T42 + 3 P7T53 + 3 P7T54 + 6 P7T56 + 10 P7T61T46 + 4 P7T75 + P7T11
       + 3 P7T6 + 4 P7T5 + 3 P7T7 + 2 P7T19 + 4 P7T20 + 4 P7T28 + 4 P7T27
       + 3 P7T81 + 3 P7T87 + 3 P7T95 + 4 P7T4 + 2 P7T16 + 4 P7T36 + 3 P7T93
       <= 20
 c159: 4 P8T20 + 6 P8T25 + 4 P8T28 + 6 P8T26 + 4 P8T35 + 4 P8T38 + 4 P8T5
       + 4 P8T91 + 3 P8T96 + 3 P8T50 + 3 P8T54 + 6 P8T59 + 4 P8T75 + 3 P8T87
       + 4 P8T89 + 4 P8T4 + 2 P8T16 + 4 P8T36 + 3 P8T93 <= 20
 c160: P9T8 + 3 P9T6 + P9T10 + 2 P9T17 + 4 P9T66 + 4 P9T67 + 4 P9T76 + 3 P9T82
       + 3 P9T86 + 3 P9T94 + 6 P9T24 + 6 P9T33 + 4 P9T38 + 4 P9T44 + 3 P9T49
       + 3 P9T55 + 6 P9T59 + 6 P9T57 + 4 P9T4 + 2 P9T16 + 4 P9T36 + 3 P9T93
       <= 20
 c161: 4 P10T67 + 6 P10T70 + 3 P10T82 + 3 P10T48 + 4 P10T43 + 4 P10T42
       + 3 P10T51 + 8 P10T73T90 + 3 P10T87 + 4 P10T89 + 3 P10T92 + P10T9
       + P10T8 + 3 P10T6 + 4 P10T39 + 4 P10T4 + 2 P10T16 + 4 P10T36 + 3 P10T93
       <= 20
 c162: 2 P11T19 + 2 P11T18 + 20 P11T79 + 3 P11T86 + 3 P11T51 + 4 P11T71
       + 4 P11T4 + 2 P11T16 + 4 P11T36 + 3 P11T93 <= 20
 c163: P12T11 + 4 P12T43 + 6 P12T41 + 3 P12T53 + 12 P12T0 + 3 P12T95 + 3 P12T98
       + 3 P12T96 + 4 P12T77 + 3 P12T80 + 4 P12T4 + 2 P12T16 + 4 P12T36
       + 3 P12T93 <= 20
 c164: 4 P13T29 + 4 P13T21 + 6 P13T70 + 3 P13T52 + 4 P13T4 + 2 P13T16
       + 4 P13T36 + 3 P13T93 <= 20
 c165: 3 P14T97 + 3 P14T94 + P14T9 + 3 P14T7 + 3 P14T2 + 3 P14T98 + 4 P14T39
       + 4 P14T38 + 4 P14T75 + 6 P14T70 + 20 P14T79 + P14T78 + 3 P14T81
       + 3 P14T48 + 6 P14T59 + 6 P14T57 + 3 P14T55 + 3 P14T54 + 4 P14T4
       + 2 P14T16 + 4 P14T36 + 3 P14T93 <= 20
 c166: 20 P15T79 + P15T78 + 3 P15T87 + 3 P15T85 + 3 P15T81 + 4 P15T89
       + 6 P15T57 + 6 P15T60 + 4 P15T66 + 4 P15T76 + 4 P15T75 + 4 P15T71
       + P15T10 + 6 P15T33 + 4 P15T40 + 3 P15T48 + 4 P15T3 + 3 P15T1 + 3 P15T54
       + 3 P15T53 + 3 P15T52 + 3 P15T50 + 4 P15T29 + 4 P15T4 + 2 P15T16
       + 4 P15T36 + 3 P15T93 <= 20
 c167: 3 P16T50 + 4 P16T34 + 4 P16T44 + 4 P16T68 + 4 P16T4 + 2 P16T16
       + 4 P16T36 + 3 P16T93 <= 20
 c168: 4 P17T22 + 2 P17T15 + 4 P17T34 + 6 P17T24 + 6 P17T26 + P17T10 + 6 P17T72
       + 4 P17T77 + P17T45 + 4 P17T4 + 2 P17T16 + 4 P17T36 + 3 P17T93 <= 20
 c169: 4 P18T43 + P18T11 + 2 P18T14 + 4 P18T77 + 3 P18T52 + 3 P18T48 + 3 P18T7
       + P18T8 + 4 P18T66 + 6 P18T59 + 4 P18T4 + 2 P18T16 + 4 P18T36 + 3 P18T93
       <= 20
 c170: 12 P19T0 + 2 P19T14 + 6 P19T13 + 4 P19T43 + 4 P19T47 + 4 P19T38
       + 3 P19T49 + 2 P19T18 + 6 P19T33 + 4 P19T29 + 3 P19T84 + 3 P19T96
       + 6 P19T63 + 4 P19T77 + 4 P19T4 + 2 P19T16 + 4 P19T36 + 3 P19T93 <= 20
 c171: 3 P20T87 + 3 P20T6 + 6 P20T26 + 4 P20T28 + 4 P20T68 + 3 P20T80
       + 4 P20T71 + 6 P20T59 + 4 P20T4 + 2 P20T16 + 4 P20T36 + 3 P20T93 <= 20
 c172: 3 P21T81 + 3 P21T80 + 3 P21T83 + 3 P21T53 + 3 P21T94 + 4 P21T42
       + 4 P21T44 + P21T10 + 4 P21T4 + 2 P21T16 + 4 P21T36 + 3 P21T93 <= 20
 c173: 3 P22T49 + 4 P22T40 + 4 P22T43 + 3 P22T53 + 3 P22T97 + 4 P22T68
       + 4 P22T69 + P22T78 + 2 P22T14 + 4 P22T4 + 2 P22T16 + 4 P22T36
       + 3 P22T93 <= 20
 c174: 4 P23T28 + 6 P23T58 + 3 P23T53 + 6 P23T63 + 4 P23T38 + 4 P23T88
       + 4 P23T4 + 2 P23T16 + 4 P23T36 + 3 P23T93 <= 20
 c175: 6 P24T31 + 6 P24T62 + 6 P24T57 + 6 P24T56 + 3 P24T94 + 4 P24T4
       + 2 P24T16 + 4 P24T36 + 3 P24T93 <= 20
 c176: 3 P25T1 + 3 P25T86 + 3 P25T95 + 4 P25T4 + 2 P25T16 + 4 P25T36 + 3 P25T93
       <= 20
 c177: 3 P26T98 + 4 P26T76 + 3 P26T55 + 4 P26T4 + 2 P26T16 + 4 P26T36
       + 3 P26T93 <= 20
Bounds
 0 <= P26T98 <= 1
 0 <= P21T81 <= 1
 0 <= P21T80 <= 1
 0 <= P2T28 <= 1
 0 <= P2T25 <= 1
 0 <= P7T42 <= 1
 0 <= P10T67 <= 1
 0 <= P15T79 <= 1
 0 <= P17T22 <= 1
 0 <= P15T78 <= 1
 0 <= P15T87 <= 1
 0 <= P6T79 <= 1
 0 <= P15T85 <= 1
 0 <= P17T15 <= 1
 0 <= P10T70 <= 1
 0 <= P16T50 <= 1
 0 <= P22T49 <= 1
 0 <= P15T81 <= 1
 0 <= P22T40 <= 1
 0 <= P22T43 <= 1
 0 <= P2T19 <= 1
 0 <= P8T20 <= 1
 0 <= P9T8 <= 1
 0 <= P1T48 <= 1
 0 <= P7T53 <= 1
 0 <= P2T11 <= 1
 0 <= P7T54 <= 1
 0 <= P8T25 <= 1
 0 <= P12T11 <= 1
 0 <= P15T89 <= 1
 0 <= P9T6 <= 1
 0 <= P7T56 <= 1
 0 <= P17T34 <= 1
 0 <= P8T28 <= 1
 0 <= P17T24 <= 1
 0 <= P7T61T46 <= 1
 0 <= P8T26 <= 1
 0 <= P10T82 <= 1
 0 <= P17T26 <= 1
 0 <= P23T28 <= 1
 0 <= P21T83 <= 1
 0 <= P22T53 <= 1
 0 <= P11T19 <= 1
 0 <= P26T76 <= 1
 0 <= P10T48 <= 1
 0 <= P11T18 <= 1
 0 <= P10T43 <= 1
 0 <= P6T98 <= 1
 0 <= P8T35 <= 1
 0 <= P15T57 <= 1
 0 <= P10T42 <= 1
 0 <= P25T1 <= 1
 0 <= P14T97 <= 1
 0 <= P14T94 <= 1
 0 <= P8T38 <= 1
 0 <= P15T60 <= 1
 0 <= P21T53 <= 1
 0 <= P20T87 <= 1
 0 <= P14T9 <= 1
 0 <= P9T10 <= 1
 0 <= P14T7 <= 1
 0 <= P7T75 <= 1
 0 <= P10T51 <= 1
 0 <= P8T5 <= 1
 0 <= P17T10 <= 1
 0 <= P14T2 <= 1
 0 <= P14T98 <= 1
 0 <= P15T66 <= 1
 0 <= P16T34 <= 1
 0 <= P15T76 <= 1
 0 <= P16T44 <= 1
 0 <= P15T75 <= 1
 0 <= P9T17 <= 1
 0 <= P15T71 <= 1
 0 <= P10T73T90 <= 1
 0 <= P3T39 <= 1
 0 <= P4T92 <= 1
 0 <= P5T60 <= 1
 0 <= P11T79 <= 1
 0 <= P5T62 <= 1
 0 <= P4T95 <= 1
 0 <= P12T43 <= 1
 0 <= P4T96 <= 1
 0 <= P12T41 <= 1
 0 <= P2T64 <= 1
 0 <= P2T62 <= 1
 0 <= P2T60 <= 1
 0 <= P23T58 <= 1
 0 <= P23T53 <= 1
 0 <= P13T29 <= 1
 0 <= P17T72 <= 1
 0 <= P3T27 <= 1
 0 <= P19T0 <= 1
 0 <= P5T74 <= 1
 0 <= P7T11 <= 1
 0 <= P7T6 <= 1
 0 <= P18T43 <= 1
 0 <= P3T23 <= 1
 0 <= P7T5 <= 1
 0 <= P17T77 <= 1
 0 <= P19T14 <= 1
 0 <= P1T86 <= 1
 0 <= P11T86 <= 1
 0 <= P13T21 <= 1
 0 <= P19T13 <= 1
 0 <= P7T7 <= 1
 0 <= P12T53 <= 1
 0 <= P2T52 <= 1
 0 <= P7T19 <= 1
 0 <= P23T63 <= 1
 0 <= P24T31 <= 1
 0 <= P22T97 <= 1
 0 <= P3T19 <= 1
 0 <= P3T18 <= 1
 0 <= P5T81 <= 1
 0 <= P10T87 <= 1
 0 <= P7T20 <= 1
 0 <= P1T79 <= 1
 0 <= P10T89 <= 1
 0 <= P1T76 <= 1
 0 <= P2T45 <= 1
 0 <= P11T51 <= 1
 0 <= P18T11 <= 1
 0 <= P16T68 <= 1
 0 <= P17T45 <= 1
 0 <= P5T89 <= 1
 0 <= P7T28 <= 1
 0 <= P10T92 <= 1
 0 <= P7T27 <= 1
 0 <= P23T38 <= 1
 0 <= P22T68 <= 1
 0 <= P21T94 <= 1
 0 <= P22T69 <= 1
 0 <= P5T91 <= 1
 0 <= P5T95 <= 1
 0 <= P1T65 <= 1
 0 <= P2T33 <= 1
 0 <= P18T14 <= 1
 0 <= P11T71 <= 1
 0 <= P12T0 <= 1
 0 <= P22T78 <= 1
 0 <= P8T91 <= 1
 0 <= P9T66 <= 1
 0 <= P19T43 <= 1
 0 <= P4T50 <= 1
 0 <= P8T96 <= 1
 0 <= P18T77 <= 1
 0 <= P19T47 <= 1
 0 <= P9T67 <= 1
 0 <= P20T6 <= 1
 0 <= P19T38 <= 1
 0 <= P12T95 <= 1
 0 <= P20T26 <= 1
 0 <= P20T28 <= 1
 0 <= P5T1 <= 1
 0 <= P9T76 <= 1
 0 <= P14T39 <= 1
 0 <= P14T38 <= 1
 0 <= P12T98 <= 1
 0 <= P4T63 <= 1
 0 <= P5T31 <= 1
 0 <= P12T96 <= 1
 0 <= P2T97 <= 1
 0 <= P4T66 <= 1
 0 <= P15T10 <= 1
 0 <= P19T49 <= 1
 0 <= P3T62 <= 1
 0 <= P5T38 <= 1
 0 <= P5T39 <= 1
 0 <= P13T70 <= 1
 0 <= P9T82 <= 1
 0 <= P4T70 <= 1
 0 <= P18T52 <= 1
 0 <= P9T86 <= 1
 0 <= P5T40 <= 1
 0 <= P18T48 <= 1
 0 <= P19T18 <= 1
 0 <= P4T32T30 <= 1
 0 <= P24T62 <= 1
 0 <= P9T94 <= 1
 0 <= P18T7 <= 1
 0 <= P18T8 <= 1
 0 <= P5T50 <= 1
 0 <= P10T9 <= 1
 0 <= P4T84 <= 1
 0 <= P4T9 <= 1
 0 <= P18T66 <= 1
 0 <= P10T8 <= 1
 0 <= P12T77 <= 1
 0 <= P19T33 <= 1
 0 <= P4T87 <= 1
 0 <= P10T6 <= 1
 0 <= P3T41 <= 1
 0 <= P13T52 <= 1
 0 <= P18T59 <= 1
 0 <= P19T29 <= 1
 0 <= P6T26 <= 1
 0 <= P12T80 <= 1
 0 <= P24T57 <= 1
 0 <= P24T56 <= 1
 0 <= P23T88 <= 1
 0 <= P25T86 <= 1
 0 <= P8T50 <= 1
 0 <= P7T81 <= 1
 0 <= P19T84 <= 1
 0 <= P8T54 <= 1
 0 <= P7T87 <= 1
 0 <= P1T11 <= 1
 0 <= P9T24 <= 1
 0 <= P15T33 <= 1
 0 <= P14T75 <= 1
 0 <= P8T59 <= 1
 0 <= P20T68 <= 1
 0 <= P15T40 <= 1
 0 <= P4T15 <= 1
 0 <= P14T70 <= 1
 0 <= P4T17 <= 1
 0 <= P25T95 <= 1
 0 <= P3T8 <= 1
 0 <= P20T80 <= 1
 0 <= P10T39 <= 1
 0 <= P7T95 <= 1
 0 <= P19T96 <= 1
 0 <= P9T33 <= 1
 0 <= P15T48 <= 1
 0 <= P14T79 <= 1
 0 <= P14T78 <= 1
 0 <= P15T3 <= 1
 0 <= P15T1 <= 1
 0 <= P15T54 <= 1
 0 <= P4T23 <= 1
 0 <= P15T53 <= 1
 0 <= P4T24 <= 1
 0 <= P9T38 <= 1
 0 <= P15T52 <= 1
 0 <= P15T50 <= 1
 0 <= P14T81 <= 1
 0 <= P21T42 <= 1
 0 <= P20T71 <= 1
 0 <= P22T14 <= 1
 0 <= P21T44 <= 1
 0 <= P26T55 <= 1
 0 <= P24T94 <= 1
 0 <= P8T75 <= 1
 0 <= P19T63 <= 1
 0 <= P9T44 <= 1
 0 <= P14T48 <= 1
 0 <= P3T98 <= 1
 0 <= P3T97 <= 1
 0 <= P4T33 <= 1
 0 <= P9T49 <= 1
 0 <= P4T37 <= 1
 0 <= P21T10 <= 1
 0 <= P2T8 <= 1
 0 <= P15T29 <= 1
 0 <= P8T87 <= 1
 0 <= P9T55 <= 1
 0 <= P14T59 <= 1
 0 <= P4T40 <= 1
 0 <= P14T57 <= 1
 0 <= P9T59 <= 1
 0 <= P19T77 <= 1
 0 <= P4T41 <= 1
 0 <= P14T55 <= 1
 0 <= P8T89 <= 1
 0 <= P9T57 <= 1
 0 <= P14T54 <= 1
 0 <= P5T12 <= 1
 0 <= P3T85 <= 1
 0 <= P20T59 <= 1
 0 <= P5T18 <= 1
 0 <= P1T4 <= 1
 0 <= P2T4 <= 1
 0 <= P3T4 <= 1
 0 <= P4T4 <= 1
 0 <= P5T4 <= 1
 0 <= P6T4 <= 1
 0 <= P7T4 <= 1
 0 <= P8T4 <= 1
 0 <= P9T4 <= 1
 0 <= P10T4 <= 1
 0 <= P11T4 <= 1
 0 <= P12T4 <= 1
 0 <= P13T4 <= 1
 0 <= P14T4 <= 1
 0 <= P15T4 <= 1
 0 <= P16T4 <= 1
 0 <= P17T4 <= 1
 0 <= P18T4 <= 1
 0 <= P19T4 <= 1
 0 <= P20T4 <= 1
 0 <= P21T4 <= 1
 0 <= P22T4 <= 1
 0 <= P23T4 <= 1
 0 <= P24T4 <= 1
 0 <= P25T4 <= 1
 0 <= P26T4 <= 1
 0 <= P1T16 <= 1
 0 <= P2T16 <= 1
 0 <= P3T16 <= 1
 0 <= P4T16 <= 1
 0 <= P5T16 <= 1
 0 <= P6T16 <= 1
 0 <= P7T16 <= 1
 0 <= P8T16 <= 1
 0 <= P9T16 <= 1
 0 <= P10T16 <= 1
 0 <= P11T16 <= 1
 0 <= P12T16 <= 1
 0 <= P13T16 <= 1
 0 <= P14T16 <= 1
 0 <= P15T16 <= 1
 0 <= P16T16 <= 1
 0 <= P17T16 <= 1
 0 <= P18T16 <= 1
 0 <= P19T16 <= 1
 0 <= P20T16 <= 1
 0 <= P21T16 <= 1
 0 <= P22T16 <= 1
 0 <= P23T16 <= 1
 0 <= P24T16 <= 1
 0 <= P25T16 <= 1
 0 <= P26T16 <= 1
 0 <= P1T36 <= 1
 0 <= P2T36 <= 1
 0 <= P3T36 <= 1
 0 <= P4T36 <= 1
 0 <= P5T36 <= 1
 0 <= P6T36 <= 1
 0 <= P7T36 <= 1
 0 <= P8T36 <= 1
 0 <= P9T36 <= 1
 0 <= P10T36 <= 1
 0 <= P11T36 <= 1
 0 <= P12T36 <= 1
 0 <= P13T36 <= 1
 0 <= P14T36 <= 1
 0 <= P15T36 <= 1
 0 <= P16T36 <= 1
 0 <= P17T36 <= 1
 0 <= P18T36 <= 1
 0 <= P19T36 <= 1
 0 <= P20T36 <= 1
 0 <= P21T36 <= 1
 0 <= P22T36 <= 1
 0 <= P23T36 <= 1
 0 <= P24T36 <= 1
 0 <= P25T36 <= 1
 0 <= P26T36 <= 1
 0 <= P1T93 <= 1
 0 <= P2T93 <= 1
 0 <= P3T93 <= 1
 0 <= P4T93 <= 1
 0 <= P5T93 <= 1
 0 <= P6T93 <= 1
 0 <= P7T93 <= 1
 0 <= P8T93 <= 1
 0 <= P9T93 <= 1
 0 <= P10T93 <= 1
 0 <= P11T93 <= 1
 0 <= P12T93 <= 1
 0 <= P13T93 <= 1
 0 <= P14T93 <= 1
 0 <= P15T93 <= 1
 0 <= P16T93 <= 1
 0 <= P17T93 <= 1
 0 <= P18T93 <= 1
 0 <= P19T93 <= 1
 0 <= P20T93 <= 1
 0 <= P21T93 <= 1
 0 <= P22T93 <= 1
 0 <= P23T93 <= 1
 0 <= P24T93 <= 1
 0 <= P25T93 <= 1
 0 <= P26T93 <= 1
Binaries
 P26T98  P21T81  P21T80  P2T28  P2T25  P7T42  P10T67  P15T79  P17T22  P15T78 
 P15T87  P6T79  P15T85  P17T15  P10T70  P16T50  P22T49  P15T81  P22T40  P22T43 
 P2T19  P8T20  P9T8  P1T48  P7T53  P2T11  P7T54  P8T25  P12T11  P15T89  P9T6 
 P7T56  P17T34  P8T28  P17T24  P7T61T46  P8T26  P10T82  P17T26  P23T28  P21T83 
 P22T53  P11T19  P26T76  P10T48  P11T18  P10T43  P6T98  P8T35  P15T57  P10T42 
 P25T1  P14T97  P14T94  P8T38  P15T60  P21T53  P20T87  P14T9  P9T10  P14T7 
 P7T75  P10T51  P8T5  P17T10  P14T2  P14T98  P15T66  P16T34  P15T76  P16T44 
 P15T75  P9T17  P15T71  P10T73T90  P3T39  P4T92  P5T60  P11T79  P5T62  P4T95 
 P12T43  P4T96  P12T41  P2T64  P2T62  P2T60  P23T58  P23T53  P13T29  P17T72 
 P3T27  P19T0  P5T74  P7T11  P7T6  P18T43  P3T23  P7T5  P17T77  P19T14  P1T86 
 P11T86  P13T21  P19T13  P7T7  P12T53  P2T52  P7T19  P23T63  P24T31  P22T97 
 P3T19  P3T18  P5T81  P10T87  P7T20  P1T79  P10T89  P1T76  P2T45  P11T51 
 P18T11  P16T68  P17T45  P5T89  P7T28  P10T92  P7T27  P23T38  P22T68  P21T94 
 P22T69  P5T91  P5T95  P1T65  P2T33  P18T14  P11T71  P12T0  P22T78  P8T91 
 P9T66  P19T43  P4T50  P8T96  P18T77  P19T47  P9T67  P20T6  P19T38  P12T95 
 P20T26  P20T28  P5T1  P9T76  P14T39  P14T38  P12T98  P4T63  P5T31  P12T96 
 P2T97  P4T66  P15T10  P19T49  P3T62  P5T38  P5T39  P13T70  P9T82  P4T70 
 P18T52  P9T86  P5T40  P18T48  P19T18  P4T32T30  P24T62  P9T94  P18T7  P18T8 
 P5T50  P10T9  P4T84  P4T9  P18T66  P10T8  P12T77  P19T33  P4T87  P10T6  P3T41 
 P13T52  P18T59  P19T29  P6T26  P12T80  P24T57  P24T56  P23T88  P25T86  P8T50 
 P7T81  P19T84  P8T54  P7T87  P1T11  P9T24  P15T33  P14T75  P8T59  P20T68 
 P15T40  P4T15  P14T70  P4T17  P25T95  P3T8  P20T80  P10T39  P7T95  P19T96 
 P9T33  P15T48  P14T79  P14T78  P15T3  P15T1  P15T54  P4T23  P15T53  P4T24 
 P9T38  P15T52  P15T50  P14T81  P21T42  P20T71  P22T14  P21T44  P26T55  P24T94 
 P8T75  P19T63  P9T44  P14T48  P3T98  P3T97  P4T33  P9T49  P4T37  P21T10  P2T8 
 P15T29  P8T87  P9T55  P14T59  P4T40  P14T57  P9T59  P19T77  P4T41  P14T55 
 P8T89  P9T57  P14T54  P5T12  P3T85  P20T59  P5T18  P1T4  P2T4  P3T4  P4T4 
 P5T4  P6T4  P7T4  P8T4  P9T4  P10T4  P11T4  P12T4  P13T4  P14T4  P15T4  P16T4 
 P17T4  P18T4  P19T4  P20T4  P21T4  P22T4  P23T4  P24T4  P25T4  P26T4  P1T16 
 P2T16  P3T16  P4T16  P5T16  P6T16  P7T16  P8T16  P9T16  P10T16  P11T16 
 P12T16  P13T16  P14T16  P15T16  P16T16  P17T16  P18T16  P19T16  P20T16 
 P21T16  P22T16  P23T16  P24T16  P25T16  P26T16  P1T36  P2T36  P3T36  P4T36 
 P5T36  P6T36  P7T36  P8T36  P9T36  P10T36  P11T36  P12T36  P13T36  P14T36 
 P15T36  P16T36  P17T36  P18T36  P19T36  P20T36  P21T36  P22T36  P23T36 
 P24T36  P25T36  P26T36  P1T93  P2T93  P3T93  P4T93  P5T93  P6T93  P7T93 
 P8T93  P9T93  P10T93  P11T93  P12T93  P13T93  P14T93  P15T93  P16T93  P17T93 
 P18T93  P19T93  P20T93  P21T93  P22T93  P23T93  P24T93  P25T93  P26T93 
End
